CMD:
./solvers/bin/cadical --plain --no-reduce -t 1600 ./data/cnfs//qspiflash_qflexpress_divfive-p036/qspiflash_qflexpress_divfive-p036.46.cnf

c --- [ banner ] -------------------------------------------------------------
c 
c CaDiCaL SAT Solver
c Copyright (c) 2016-2024
c A. Biere, M. Fleury, N. Froleyks, K. Fazekas, F. Pollitt, T. Faller
c JKU Linz, University of Freiburg, TU Wien
c 
c Version 2.1.3 5296d3d2a9bf48c154ab2acb5e44625776d821bf
c g++ (Gentoo 12.3.1_p20230526 p2) 12.3.1 20230526 -Wall -Wextra -O3 -DNDEBUG
c Sat Aug 9 07:26:21 PDT 2025 Linux cedar2.int.cedar.computecanada.ca 5.14.0-362.24.2.el9_3.x86_64 x86_64
c 
c --- [ limit ] --------------------------------------------------------------
c 
c setting time limit to 1600 seconds real time (due to '-t 1600')
c 
c --- [ parsing input ] ------------------------------------------------------
c 
c reading DIMACS file from './data/cnfs//qspiflash_qflexpress_divfive-p036/qspiflash_qflexpress_divfive-p036.46.cnf'
c opening file to read './data/cnfs//qspiflash_qflexpress_divfive-p036/qspiflash_qflexpress_divfive-p036.46.cnf'
c found 'p cnf 123779 360445' header
c parsed 360445 clauses in 0.06 seconds process time
c 
c --- [ options ] ------------------------------------------------------------
c 
c   --compact=false                (different from default 'true')
c   --decompose=false              (different from default 'true')
c   --deduplicate=false            (different from default 'true')
c   --elim=false                   (different from default 'true')
c   --probe=false                  (different from default 'true')
c   --reduce=false                 (different from default 'true')
c   --subsume=false                (different from default 'true')
c   --ternary=false                (different from default 'true')
c   --transred=false               (different from default 'true')
c   --vivify=false                 (different from default 'true')
c 
c --- [ solving ] ------------------------------------------------------------
c 
c time measured in process time since initialization
c 
c  seconds  reductions  redundant  irredundant
c         MB    restarts       trail       variables
c          level   conflicts       glue          remaining
c 
c *  0.06 59  0 0   0    0    0  0% 0 346409 115495 93%
c {  0.08 60  0 0   0    0    0  0% 0 346409 115495 93%
c i  0.09 61 51 0   0   10    8 18% 2 346409 115476 93%
c i  0.10 61 90 0   0   86   76 15% 9 346409 115426 93%
c i  0.10 61 84 0   0   97   82 15% 8 346409 115415 93%
c i  0.11 61 66 0   0  132  110 14% 7 346409 115071 93%
c i  0.11 61 65 0   0  133  110 14% 7 346409 115060 93%
c i  0.15 61 61 0   9  367  325 18% 9 346409 115059 93%
c i  0.15 61 63 0   9  396  352 19% 8 346409 115058 93%
c i  0.16 61 68 0   9  499  438 21% 7 346409 115057 93%
c i  0.17 61 71 0   9  600  527 23% 7 346409 115048 93%
c i  0.17 61 71 0   9  609  531 24% 7 346409 115040 93%
c }  0.20 62 68 0  29 1001  877 23% 7 346409 115040 93%
c [  0.20 62  0 0  29 1001  877  0% 0 346409 115040 93%
c O  0.22 62 700 0  29 1002  878 82% 4 346409 115040 93%
c i  0.22 62 694 0  29 1003  878 82% 2 346409 115036 93%
c i  0.23 62 692 0  29 1022  895 83% 3 346409 115032 93%
c i  0.25 62 664 0  29 1286 1137 77% 4 346409 115028 93%
c i  0.28 62 643 0  29 1694 1505 73% 4 346409 115024 93%
c i  0.28 62 643 0  29 1695 1505 73% 4 346409 115020 93%
c 
c  seconds   reductions  redundant  irredundant
c         MB     restarts       trail       variables
c           level   conflicts       glue          remaining
c 
c i  0.30 62 636 0  29 2003 1779 72% 6 346409 115016 93%
c i  0.31 62 633 0  30 2063 1829 71% 6 346409 115012 93%
c i  0.37 62 441 0  30 2564 2271 54% 6 346409 115011 93%
c ]  0.42 62 362 0  30 3001 2671 48% 6 346409 115011 93%
c {  0.42 62 68 0  30 3001 2671 23% 7 346409 115011 93%
c F  0.43 62 68 0  31 3010 2676 23% 7 346409 115011 93%
c i  0.43 62 68 0  31 3010 2676 23% 7 346409 115007 93%
c i  0.44 62 60 0  31 3154 2792 21% 6 346409 114887 93%
c i  0.45 62 63 0  33 3270 2894 22% 6 346409 114580 93%
c i  0.45 62 62 0  36 3294 2912 22% 6 346409 114532 93%
c i  0.48 62 56 0  45 3499 3070 20% 6 346409 114485 92%
c i  0.49 62 52 0  45 3681 3235 20% 6 346409 114481 92%
c i  0.50 62 52 0  45 3719 3266 20% 6 346409 114470 92%
c i  0.52 62 50 0  47 3922 3448 20% 6 346409 114466 92%
c i  0.63 62 49 0  80 5228 4582 21% 6 346409 114299 92%
c i  0.65 62 49 0  88 5355 4687 21% 6 346409 114152 92%
c i  0.69 62 48 0  96 5670 4961 21% 6 346409 113329 92%
c i  0.71 62 46 0 100 5821 5093 21% 6 346409 113328 92%
c i  0.71 62 46 0 100 5822 5093 21% 6 346409 109373 88%
c #  0.74 62 45 0 105 6011 5269 21% 6 346409 109365 88%
c 
c  seconds  reductions  redundant  irredundant
c         MB    restarts       trail       variables
c          level   conflicts       glue          remaining
c 
c i  0.74 62 45 0 105 6030 5286 21% 6 346409 108955 88%
c i  0.74 62 45 0 105 6032 5287 21% 5 346409 108879 88%
c i  0.74 62 45 0 105 6034 5288 21% 5 346409 108474 88%
c i  0.74 62 45 0 105 6035 5288 21% 5 346409 108470 88%
c i  0.74 62 45 0 105 6037 5288 21% 5 346409 105995 86%
c }  0.75 62 45 0 105 6075 5314 21% 5 346409 100241 81%
c 0  0.75 62 45 0 105 6075 5314 21% 5 346409 100241 81%
c 
c --- [ result ] -------------------------------------------------------------
c 
s UNSATISFIABLE
c 
c --- [ run-time profiling ] -------------------------------------------------
c 
c process time taken by individual solving procedures
c (percentage relative to process time for solving)
c 
c         0.69   99.99% search
c         0.44   64.27% unstable
c         0.22   31.75% stable
c         0.06    8.13% parse
c         0.03    3.95% lucky
c         0.00    0.00% simplify
c   =================================
c         0.69   92.41% solve
c 
c last line shows process time for solving
c (percentage relative to total process time)
c 
c --- [ statistics ] ---------------------------------------------------------
c 
c chronological:              2487        40.94 %  of conflicts
c conflicts:                  6075      8796.29    per second
c decisions:                 15096     21858.24    per second
c fixed:                     23537        19.02 %  of all variables
c learned:                    5732        94.35 %  per conflict
c learned_lits:             119943       100.00 %  learned literals
c minimized:                     0         0.00 %  learned literals
c shrunken:                  16620        13.86 %  learned literals
c minishrunken:              19510        16.27 %  learned literals
c otfs:                        100         1.65 %  of conflict
c propagations:           12210889        17.68 M  per second
c rephased:                      3      2025.00    interval
c restarts:                    105        57.86    interval
c stabilizing:                   1        32.92 %  of conflicts
c subsumed:                    377         0.11 %  of all clauses
c strengthened:                100         0.03 %  of all clauses
c 
c seconds are measured in process time for solving
c 
c --- [ resources ] ----------------------------------------------------------
c 
c total process time since initialization:         0.75    seconds
c total real time since initialization:            0.75    seconds
c maximum resident set size of process:           61.26    MB
c 
c --- [ shutting down ] ------------------------------------------------------
c 
c exit 20
